(set-logic HORN)
(declare-datatypes ((Bool_315 0)) (((false_315 ) (true_315 ))))
(declare-fun diseqBool_145 (Bool_315 Bool_315) Bool)
(declare-fun isfalse_145 (Bool_315) Bool)
(declare-fun istrue_145 (Bool_315) Bool)
(assert (isfalse_145 false_315))
(assert (istrue_145 true_315))
(assert (diseqBool_145 false_315 true_315))
(assert (diseqBool_145 true_315 false_315))
(declare-fun and_315 (Bool_315 Bool_315 Bool_315) Bool)
(declare-fun or_322 (Bool_315 Bool_315 Bool_315) Bool)
(declare-fun hence_315 (Bool_315 Bool_315 Bool_315) Bool)
(declare-fun not_320 (Bool_315 Bool_315) Bool)
(assert (and_315 false_315 false_315 false_315))
(assert (and_315 false_315 true_315 false_315))
(assert (and_315 false_315 false_315 true_315))
(assert (and_315 true_315 true_315 true_315))
(assert (or_322 false_315 false_315 false_315))
(assert (or_322 true_315 true_315 false_315))
(assert (or_322 true_315 false_315 true_315))
(assert (or_322 true_315 true_315 true_315))
(assert (hence_315 true_315 false_315 false_315))
(assert (hence_315 false_315 true_315 false_315))
(assert (hence_315 true_315 false_315 true_315))
(assert (hence_315 true_315 true_315 true_315))
(assert (not_320 true_315 false_315))
(assert (not_320 false_315 true_315))
(declare-datatypes ((Nat_532 0)) (((Z_1909 ) (S_421 (projS_146 Nat_532)))))
(declare-fun diseqNat_532 (Nat_532 Nat_532) Bool)
(declare-fun projS_147 (Nat_532 Nat_532) Bool)
(declare-fun isZ_388 (Nat_532) Bool)
(declare-fun isS_388 (Nat_532) Bool)
(assert (forall ((x_53995 Nat_532))
	(projS_147 x_53995 (S_421 x_53995))))
(assert (isZ_388 Z_1909))
(assert (forall ((x_53997 Nat_532))
	(isS_388 (S_421 x_53997))))
(assert (forall ((x_53998 Nat_532))
	(diseqNat_532 Z_1909 (S_421 x_53998))))
(assert (forall ((x_53999 Nat_532))
	(diseqNat_532 (S_421 x_53999) Z_1909)))
(assert (forall ((x_54000 Nat_532) (x_54001 Nat_532))
	(=> (diseqNat_532 x_54000 x_54001)
	    (diseqNat_532 (S_421 x_54000) (S_421 x_54001)))))
(declare-datatypes ((list_221 0)) (((nil_251 ) (cons_221 (head_442 Nat_532) (tail_442 list_221)))))
(declare-fun diseqlist_221 (list_221 list_221) Bool)
(declare-fun head_443 (Nat_532 list_221) Bool)
(declare-fun tail_443 (list_221 list_221) Bool)
(declare-fun isnil_251 (list_221) Bool)
(declare-fun iscons_221 (list_221) Bool)
(assert (forall ((x_54003 Nat_532) (x_54004 list_221))
	(head_443 x_54003 (cons_221 x_54003 x_54004))))
(assert (forall ((x_54003 Nat_532) (x_54004 list_221))
	(tail_443 x_54004 (cons_221 x_54003 x_54004))))
(assert (isnil_251 nil_251))
(assert (forall ((x_54006 Nat_532) (x_54007 list_221))
	(iscons_221 (cons_221 x_54006 x_54007))))
(assert (forall ((x_54008 Nat_532) (x_54009 list_221))
	(diseqlist_221 nil_251 (cons_221 x_54008 x_54009))))
(assert (forall ((x_54010 Nat_532) (x_54011 list_221))
	(diseqlist_221 (cons_221 x_54010 x_54011) nil_251)))
(assert (forall ((x_54012 Nat_532) (x_54013 list_221) (x_54014 Nat_532) (x_54015 list_221))
	(=> (diseqNat_532 x_54012 x_54014)
	    (diseqlist_221 (cons_221 x_54012 x_54013) (cons_221 x_54014 x_54015)))))
(assert (forall ((x_54012 Nat_532) (x_54013 list_221) (x_54014 Nat_532) (x_54015 list_221))
	(=> (diseqlist_221 x_54013 x_54015)
	    (diseqlist_221 (cons_221 x_54012 x_54013) (cons_221 x_54014 x_54015)))))
(declare-fun barbar_0 (Bool_315 Bool_315 Bool_315) Bool)
(assert (forall ((y_2144 Bool_315))
	(barbar_0 true_315 true_315 y_2144)))
(assert (forall ((x_53974 Bool_315))
	(barbar_0 x_53974 false_315 x_53974)))
(declare-fun x_53966 (Bool_315 Nat_532 Nat_532) Bool)
(assert (forall ((x_53975 Bool_315) (y_2146 Nat_532) (x_53968 Nat_532))
	(=> (x_53966 x_53975 x_53968 y_2146)
	    (x_53966 x_53975 (S_421 x_53968) (S_421 y_2146)))))
(assert (forall ((x_53968 Nat_532))
	(x_53966 false_315 (S_421 x_53968) Z_1909)))
(assert (forall ((z_1910 Nat_532))
	(x_53966 false_315 Z_1909 (S_421 z_1910))))
(assert (x_53966 true_315 Z_1909 Z_1909))
(declare-fun elem_12 (Bool_315 Nat_532 list_221) Bool)
(assert (forall ((x_53980 Bool_315) (x_53981 Bool_315) (x_53982 Bool_315) (z_1911 Nat_532) (xs_608 list_221) (x_53969 Nat_532))
	(=>	(and (x_53966 x_53981 x_53969 z_1911)
			(elem_12 x_53982 x_53969 xs_608)
			(barbar_0 x_53980 x_53981 x_53982))
		(elem_12 x_53980 x_53969 (cons_221 z_1911 xs_608)))))
(assert (forall ((x_53969 Nat_532))
	(elem_12 false_315 x_53969 nil_251)))
(declare-fun x_53970 (list_221 list_221 list_221) Bool)
(assert (forall ((x_53986 list_221) (z_1912 Nat_532) (xs_609 list_221) (y_2148 list_221))
	(=> (x_53970 x_53986 xs_609 y_2148)
	    (x_53970 (cons_221 z_1912 x_53986) (cons_221 z_1912 xs_609) y_2148))))
(assert (forall ((x_53987 list_221))
	(x_53970 x_53987 nil_251 x_53987)))
(assert (forall ((x_53988 list_221) (x_53972 Nat_532) (y_2149 list_221) (z_1913 list_221))
	(=>	(and true
			(elem_12 true_315 x_53972 y_2149)
			(x_53970 x_53988 y_2149 z_1913)
			(elem_12 false_315 x_53972 x_53988))
		false)))
(check-sat)
